(set-logic QF_SLID_LC)

(declare-sort RefSll_t 0)

(declare-fun next() (Field RefSll_t RefSll_t))

(define-fun ls ((in RefSll_t) (out RefSll_t)) Space (tospace
    (or (and  (= in out) (tobool emp) )
        (exists ((u RefSll_t))
            (and (tobool (ssep (pto in (ref next u)) (ls u out ) )) )
)  ) ) )

;; variables
(declare-fun x0() RefSll_t)
(declare-fun x1() RefSll_t)
(declare-fun x2() RefSll_t)
(declare-fun x3() RefSll_t)
(declare-fun x4() RefSll_t)
(declare-fun x5() RefSll_t)
(declare-fun x6() RefSll_t)
(declare-fun x7() RefSll_t)
(declare-fun x8() RefSll_t)
(declare-fun x9() RefSll_t)
(declare-fun x10() RefSll_t)
(declare-fun x11() RefSll_t)
(declare-fun x12() RefSll_t)
(declare-fun x13() RefSll_t)
(declare-fun x14() RefSll_t)
(declare-fun x15() RefSll_t)
(declare-fun x16() RefSll_t)
(declare-fun x17() RefSll_t)
(declare-fun x18() RefSll_t)
(declare-fun x19() RefSll_t)
(declare-fun x20() RefSll_t)
(declare-fun x21() RefSll_t)
(declare-fun x22() RefSll_t)
(declare-fun x23() RefSll_t)

(assert 
		(and 

			(distinct x6 x9)
			(distinct x6 x17)
			(distinct x6 x12)
			(distinct x6 x14)
			(distinct x11 x17)
			(distinct x3 x10)
			(distinct x3 x19)
			(distinct x3 x16)
			(distinct x3 x5)
			(distinct x7 x18)
			(distinct x7 x9)
			(distinct x7 x15)
			(distinct x9 x10)
			(distinct x9 x12)
			(distinct x12 x17)
			(distinct x12 x14)
			(distinct x2 x11)
			(distinct x2 x10)
			(distinct x2 x9)
			(distinct x2 x5)
			(distinct x14 x17)
			(distinct x15 x18)
			(distinct x15 x17)
			(distinct x8 x15)
			(distinct x4 x14)
			(distinct x10 x17)
			(distinct x5 x8)
		(tobool (ssep 
			(ls x19 x2 )
			(ls x18 x13 )
			(ls x18 x11 )
			(ls x1 x14 )
			(ls x1 x13 )
			(ls x8 x19 )
			(ls x15 x17 )
			(ls x15 x16 )
			(ls x14 x18 )
			(ls x14 x11 )
			(ls x14 x8 )
			(ls x2 x10 )
			(ls x17 x5 )
			(ls x17 x19 )
			(ls x9 x3 )
			(ls x9 x4 )
			(ls x9 x8 )
			(ls x7 x16 )
			(ls x7 x1 )
		)

		)

) )

(check-sat)
;   unsat